

























































































64 44 74 55 
27 13 15 
56 72 69 
34 35 7 42 
26 9 51 
59 45 41 
3 12 5 
22 18 36 
46 23 0 
58 73 31 
53 14 60 
37 76 39 
61 75 71 
28 50 67 16 
32 21 48 
29 70 2 
19 63 68 
11 65 8 
38 1 40 
30 25 52 
17 57 24 
20 10 47 
54 49 33 
6 4 
62 66 43 
